NAME : sample20
COMMENT : Sample dataset with 20 nodes
COMMENT : Derived from Zainab
TYPE : TSP
DIMENSION : 20
EDGE_WEIGHT_TYPE : EUC_2D
NODE_COORD_SECTION
1 10 20
2 15 25
3 30 15
4 25 10
5 5 5
6 18 12
7 22 30
8 27 17
9 8 28
10 35 22
11 14 18
12 20 30
13 28 25
14 33 20
15 25 28
16 19 25
17 22 18
18 12 15
19 28 22
20 30 30
EOF
